scenesLength = [1,1,1,1,3,1,1,1,1,1,1,1,1];
actorsCosts = [4000,2000,2000,1000,500,1000,500,400,500,400];
actorsToScenes = [{3,9,10,11,12}, {1,2,5,6,7,8,9,10,11,13}, {2,8}, {1,4,5,6,7,8,9,10,13}, {4,10}, {1,6,7,9,10,11,12}, {2,5,9,10,11}, {6,10}, {11,13}, {9,10}];
